\ SCIP STATISTICS
\   Problem name     : t_timtab1
\   Variables        : 397 (77 binary, 94 integer, 0 implicit integer, 226 continuous)
\   Constraints      : 172
Minimize
 Obj: +1001 t_x172 +476 t_x173 +1000 t_x174 +500 t_x176 +500 t_x177 +500 t_x179 +261 t_x180 +1001 t_x184
      +1000 t_x187 +1001 t_x188 +500 t_x190 +1001 t_x191 +1001 t_x192 +540 t_x193 +431 t_x194 +1001 t_x196
      +328 t_x197 +520 t_x198 +600 t_x203 +333.33333333 t_x206 +1001 t_x207 +2002 t_x212 +1001 t_x213
      +1001 t_x214 +500 t_x216 +500 t_x217 +719 t_x222 +1001 t_x226 +1001 t_x1 +1000 t_x4 +1001 t_x5 +1000 t_x7
      +1001 t_x8 +1387 t_x12 +245 t_x14 +437 t_x15 +500 t_x16 +500 t_x17 +725 t_x18 +2002 t_x22 +291 t_x25
      +331 t_x27 +481 t_x28 +341 t_x29 +650 t_x30 +520 t_x31 +1000 t_x32 +250 t_x39 +1001 t_x40 +227 t_x41
      +338 t_x42 +954 t_x44 +2002 t_x47 +333.33333333 t_x50 +333.33333333 t_x51 +666.66666667 t_x52 +666.66666667 t_x53
      +333.33333333 t_x54 +333.33333333 t_x55 +1001 t_x57 +1001 t_x59 +823 t_x62 +440 t_x63 +1000 t_x64
      +1000 t_x65 +371 t_x66 +1001 t_x67 +1001 t_x68 +1001 t_x71 +231 t_x72 +470 t_x75 +520 t_x76 +235 t_x77
      +295 t_x78 +650 t_x79 +500 t_x80 +500 t_x81 +474 t_x85 +909 t_x86 +283 t_x87 +384 t_x88 +1001 t_x89
      +1100 t_x91 +490 t_x92 +464 t_x93 +1000 t_x94 +1000 t_x103 +287 t_x104 +1001 t_x107 +1001 t_x108
      +520 t_x110 +1100 t_x111 +500 t_x112 +500 t_x113 +1001 t_x115 +337 t_x118 +312 t_x119 +1001 t_x123
      +500 t_x124 +500 t_x126 +500 t_x127 +1001 t_x129 +1001 t_x130 +500 t_x131 +1001 t_x132 +1001 t_x134
      +366 t_x136 +489 t_x137 +1000 t_x138 +906 t_x140 +1001 t_x141 +1001 t_x142 +1000 t_x144 +1001 t_x145
      +1001 t_x146 +232 t_x147 +293 t_x152 +703 t_x153 +1001 t_x154 +499 t_x155 +1001 t_x157 +580 t_x158
      +247 t_x159 +600 t_x162 +520 t_x163 +1001 t_x165 +1001 t_x167 +1001 t_x170
Subject to
 c1: -60 t_x227 +1 t_x1 +1 t_x4 +1 t_x5 +1 t_x14 +1 t_x22 +1 t_x34 -1 t_x159 +1 t_x160 = -35
 c2: -60 t_x228 -1 t_x2 +1 t_x3 = -1
 c3: -60 t_x229 -1 t_x2 -1 t_x4 -1 t_x6 +1 t_x7 = -115
 c4: -60 t_x230 -1 t_x5 +1 t_x6 +1 t_x8 +1 t_x12 -1 t_x14 = -24
 c5: -60 t_x231 +1 t_x9 +1 t_x12 -1 t_x14 = -31
 c6: -60 t_x232 +1 t_x192 -1 t_x193 +1 t_x10 -1 t_x12 -1 t_x22 -1 t_x34 = -91
 c7: -60 t_x233 +1 t_x192 -1 t_x194 +1 t_x11 -1 t_x12 -1 t_x22 -1 t_x34 = -80
 c8: -60 t_x234 +1 t_x13 +1 t_x22 -1 t_x29 = +0
 c9: -60 t_x235 +1 t_x212 +1 t_x17 +1 t_x22 +1 t_x32 = +2
 c10: -60 t_x236 -1 t_x15 +1 t_x18 = -30
 c11: -60 t_x237 -1 t_x19 +1 t_x20 = -30
 c12: -60 t_x238 +1 t_x21 -1 t_x22 +1 t_x29 = +22
 c13: -60 t_x239 +1 t_x24 +1 t_x37 = +24
 c82: -60 t_x308 -1 t_x109 +1 t_x111 = -30
 c170: -60 t_x396 +1 t_x192 -1 t_x193 +1 t_x225 -1 t_x14 -1 t_x22 -1 t_x34 = -119
 c17: -60 t_x243 -1 t_x28 +1 t_x30 = -30
 c18: -60 t_x244 -1 t_x29 +1 t_x31 = -30
 c19: -60 t_x245 -1 t_x34 +1 t_x36 = -30
 c20: -60 t_x246 -1 t_x33 +1 t_x38 = -30
 c21: -60 t_x247 -1 t_x33 +1 t_x39 = -31
 c22: -60 t_x248 -1 t_x41 +1 t_x42 = -1
 c23: -60 t_x249 -1 t_x41 +1 t_x43 = -30
 c24: -60 t_x250 -1 t_x41 +1 t_x44 = -31
 c25: -60 t_x251 +1 t_x32 -1 t_x41 +1 t_x45 -1 t_x54 -1 t_x62 = -122
 c26: -60 t_x252 +1 t_x32 -1 t_x41 +1 t_x46 -1 t_x54 -1 t_x62 = -152
 c27: -60 t_x253 +1 t_x34 -1 t_x41 +1 t_x47 = +0
 c28: -60 t_x254 +1 t_x40 -1 t_x41 +1 t_x48 = +1
 c29: -60 t_x255 +1 t_x40 -1 t_x41 +1 t_x49 = -29
 c30: -60 t_x256 -1 t_x32 +1 t_x41 +1 t_x50 -1 t_x56 +1 t_x62 = -59
 c31: -60 t_x257 -1 t_x32 +1 t_x41 +1 t_x51 -1 t_x56 +1 t_x62 = -89
 c32: -60 t_x258 -1 t_x32 +1 t_x41 +1 t_x52 +1 t_x62 = +0
 c33: -60 t_x259 -1 t_x32 +1 t_x41 +1 t_x53 +1 t_x62 = -30
 c34: -60 t_x260 -1 t_x54 +1 t_x55 = -30
 c35: -60 t_x261 +1 t_x205 +1 t_x57 -1 t_x62 = +0
 c36: -60 t_x262 -1 t_x56 +1 t_x58 = -30
 c37: -60 t_x263 +1 t_x202 +1 t_x59 -1 t_x62 = -30
 c38: -60 t_x264 +1 t_x60 -1 t_x62 +1 t_x67 = +1
 c39: -60 t_x265 +1 t_x61 -1 t_x62 +1 t_x67 = -29
 c40: -60 t_x266 -1 t_x62 +1 t_x63 = -30
 c41: -60 t_x267 -1 t_x32 +1 t_x40 +1 t_x64 +1 t_x67 = -14
 c42: -60 t_x268 -1 t_x32 +1 t_x40 +1 t_x65 +1 t_x67 = -44
 c14: -60 t_x240 -1 t_x23 +1 t_x25 = -1
 c44: -60 t_x270 -1 t_x67 +1 t_x68 +1 t_x74 = +27
 c45: -60 t_x271 -1 t_x205 +1 t_x69 +1 t_x74 = -3
 c46: -60 t_x272 -1 t_x202 +1 t_x70 +1 t_x74 = -3
 c47: -60 t_x273 +1 t_x174 -1 t_x175 +1 t_x192 +1 t_x32 -1 t_x34 +1 t_x71 -1 t_x74 = -156
 c48: -60 t_x274 +1 t_x205 +1 t_x72 -1 t_x74 -1 t_x77 = -60
 c49: -60 t_x275 +1 t_x32 -1 t_x33 +1 t_x73 -1 t_x74 = -68
 c50: -60 t_x276 +1 t_x192 -1 t_x193 +1 t_x32 -1 t_x34 -1 t_x74 +1 t_x75 = -134
 c51: -60 t_x277 +1 t_x205 -1 t_x74 +1 t_x76 -1 t_x77 = -59
 c52: -60 t_x278 -1 t_x202 +1 t_x205 -1 t_x77 +1 t_x78 = -60
 c53: -60 t_x279 +1 t_x205 -1 t_x23 -1 t_x32 -1 t_x77 +1 t_x79 = -167
 c54: -60 t_x280 +1 t_x205 -1 t_x32 +1 t_x34 -1 t_x77 +1 t_x80 -1 t_x151 = -145
 c55: -60 t_x281 +1 t_x205 -1 t_x32 +1 t_x37 -1 t_x77 +1 t_x81 = -108
 c56: -60 t_x282 +1 t_x205 -1 t_x77 +1 t_x82 +1 t_x135 = -45
 c57: -60 t_x283 +1 t_x205 -1 t_x77 +1 t_x83 +1 t_x109 = -45
 c58: -60 t_x284 +1 t_x205 -1 t_x77 +1 t_x84 -1 t_x97 = -99
 c16: -60 t_x242 -1 t_x23 +1 t_x27 = -31
 c60: -60 t_x286 -1 t_x202 +1 t_x205 -1 t_x77 +1 t_x86 = -59
 c61: -60 t_x287 +1 t_x205 -1 t_x32 +1 t_x33 -1 t_x77 +1 t_x87 = -116
 c15: -60 t_x241 -1 t_x23 +1 t_x26 = -30
 c81: -60 t_x307 -1 t_x109 +1 t_x110 = -1
 c64: -60 t_x290 -1 t_x23 -1 t_x32 +1 t_x90 +1 t_x97 = -73
 c65: -60 t_x291 -1 t_x32 +1 t_x34 +1 t_x91 +1 t_x97 = -27
 c66: -60 t_x292 -1 t_x32 +1 t_x34 +1 t_x92 +1 t_x97 = -57
 c67: -60 t_x293 -1 t_x32 +1 t_x35 +1 t_x93 +1 t_x97 = -57
 c68: -60 t_x294 -1 t_x32 +1 t_x33 +1 t_x94 +1 t_x97 = -56
 c69: -60 t_x295 -1 t_x32 +1 t_x34 +1 t_x96 +1 t_x97 -1 t_x151 = -87
 c70: -60 t_x296 +1 t_x32 -1 t_x37 -1 t_x97 +1 t_x98 = -78
 c71: -60 t_x297 +1 t_x32 -1 t_x34 -1 t_x97 +1 t_x99 = -98
 c72: -60 t_x298 +1 t_x32 -1 t_x34 -1 t_x97 +1 t_x100 = -68
 c73: -60 t_x299 +1 t_x32 -1 t_x33 -1 t_x97 +1 t_x101 = -49
 c74: -60 t_x300 +1 t_x32 -1 t_x35 -1 t_x97 +1 t_x102 = -68
 c75: -60 t_x301 +1 t_x32 -1 t_x33 -1 t_x97 +1 t_x103 = -86
 c76: -60 t_x302 -1 t_x97 +1 t_x104 = -30
 c77: -60 t_x303 -1 t_x97 +1 t_x105 -1 t_x135 = -57
 c78: -60 t_x304 -1 t_x97 +1 t_x106 -1 t_x109 = -57
 c79: -60 t_x305 -1 t_x19 -1 t_x22 -1 t_x32 +1 t_x95 +1 t_x97 +1 t_x107 = -99
 c80: -60 t_x306 +1 t_x54 +1 t_x62 -1 t_x95 -1 t_x97 +1 t_x108 = -88
 c169: -60 t_x395 -1 t_x193 +1 t_x194 +1 t_x224 = -16
 c167: -60 t_x393 +1 t_x193 -1 t_x194 +1 t_x222 = -50
 c83: -60 t_x309 -1 t_x32 +1 t_x34 -1 t_x109 +1 t_x112 -1 t_x151 = -163
 c84: -60 t_x310 -1 t_x32 +1 t_x37 -1 t_x109 +1 t_x113 = -66
 c168: -60 t_x394 -1 t_x193 +1 t_x194 +1 t_x223 = -1
 c86: -60 t_x312 -1 t_x212 +1 t_x109 +1 t_x115 -1 t_x119 = +0
 c87: -60 t_x313 +1 t_x32 -1 t_x33 +1 t_x109 +1 t_x116 = -54
 c88: -60 t_x314 +1 t_x109 +1 t_x117 -1 t_x135 = -3
 c89: -60 t_x315 +1 t_x212 +1 t_x16 +1 t_x22 +1 t_x32 +1 t_x119 +1 t_x120 = +55
 c90: -60 t_x316 +1 t_x119 +1 t_x121 = +23
 c91: -60 t_x317 +1 t_x212 +1 t_x29 +1 t_x32 +1 t_x119 +1 t_x122 = +39
 c92: -60 t_x318 +1 t_x212 +1 t_x15 +1 t_x22 +1 t_x32 +1 t_x119 +1 t_x123 +1 t_x124 = +29
 c93: -60 t_x319 -1 t_x124 +1 t_x125 +1 t_x131 = -3
 c94: -60 t_x320 -1 t_x124 +1 t_x126 -1 t_x128 = -63
 c95: -60 t_x321 +1 t_x127 -1 t_x128 -1 t_x131 = -57
 c96: -60 t_x322 -1 t_x15 -1 t_x22 +1 t_x29 +1 t_x128 +1 t_x129 = -6
 c97: -60 t_x323 -1 t_x192 +1 t_x194 +1 t_x15 +1 t_x22 +1 t_x34 +1 t_x130 +1 t_x131 = +54
 c98: -60 t_x324 -1 t_x212 +1 t_x56 -1 t_x62 +1 t_x118 -1 t_x119 +1 t_x132 = -101
 c99: -60 t_x325 -1 t_x212 -1 t_x32 +1 t_x33 +1 t_x118 -1 t_x119 +1 t_x133 = -102
 c100: -60 t_x326 +1 t_x212 +1 t_x16 +1 t_x22 +1 t_x32 -1 t_x118 +1 t_x119 +1 t_x134 = -58
 c101: -60 t_x327 -1 t_x135 +1 t_x136 = -1
 c102: -60 t_x328 -1 t_x32 +1 t_x34 -1 t_x135 +1 t_x137 -1 t_x151 = -138
 c103: -60 t_x329 -1 t_x23 -1 t_x32 -1 t_x135 +1 t_x138 = -150
 c104: -60 t_x330 -1 t_x32 +1 t_x33 -1 t_x135 +1 t_x139 = -72
 c105: -60 t_x331 -1 t_x135 +1 t_x140 = -30
 c106: -60 t_x332 +1 t_x28 +1 t_x32 +1 t_x135 +1 t_x141 +1 t_x143 = +2
 c107: -60 t_x333 +1 t_x142 -1 t_x143 +1 t_x144 +1 t_x145 = -22
 c108: -60 t_x334 -1 t_x197 +1 t_x146 +1 t_x151 = -1
 c109: -60 t_x335 +1 t_x147 +1 t_x151 -1 t_x159 = -3
 c110: -60 t_x336 +1 t_x23 +1 t_x34 +1 t_x148 -1 t_x151 = -16
 c111: -60 t_x337 +1 t_x34 -1 t_x37 +1 t_x149 -1 t_x151 = -100
 c112: -60 t_x338 -1 t_x33 +1 t_x34 +1 t_x150 -1 t_x151 = -71
 c113: -60 t_x339 +1 t_x34 -1 t_x35 -1 t_x151 +1 t_x152 = -90
 c114: -60 t_x340 -1 t_x151 +1 t_x153 = -30
 c115: -60 t_x341 -1 t_x14 -1 t_x22 -1 t_x34 +1 t_x154 +1 t_x159 = -74
 c116: -60 t_x342 -1 t_x15 -1 t_x22 -1 t_x34 +1 t_x155 +1 t_x159 = -75
 c117: -60 t_x343 +1 t_x197 +1 t_x156 -1 t_x159 = -1
 c118: -60 t_x344 +1 t_x174 +1 t_x192 +1 t_x157 -1 t_x159 +1 t_x169 = -22
 c119: -60 t_x345 +1 t_x174 +1 t_x192 +1 t_x158 -1 t_x159 = -53
 c120: -60 t_x346 -1 t_x159 +1 t_x162 = -30
 c121: -60 t_x347 +1 t_x34 -1 t_x35 -1 t_x159 +1 t_x163 = -90
 c122: -60 t_x348 +1 t_x197 -1 t_x159 +1 t_x164 = -15
 c123: -60 t_x349 +1 t_x212 +1 t_x32 -1 t_x34 +1 t_x159 -1 t_x161 +1 t_x165 = -75
 c124: -60 t_x350 -1 t_x197 +1 t_x159 -1 t_x161 +1 t_x166 = -110
 c125: -60 t_x351 +1 t_x2 +1 t_x4 +1 t_x5 +1 t_x14 +1 t_x22 +1 t_x34 -1 t_x159 +1 t_x161 +1 t_x167 = -31
 c126: -60 t_x352 -1 t_x160 +1 t_x161 +1 t_x168 = -3
 c171: -60 t_x397 -1 t_x192 +1 t_x193 +1 t_x226 +1 t_x159 -1 t_x160 = -15
 c128: -60 t_x354 -1 t_x169 +1 t_x171 = -30
 c129: -60 t_x355 +1 t_x172 +1 t_x174 +1 t_x192 -1 t_x202 +1 t_x32 -1 t_x34 = -67
 c130: -60 t_x356 +1 t_x173 +1 t_x174 +1 t_x192 -1 t_x197 = -53
 c131: -60 t_x357 -1 t_x174 +1 t_x176 +1 t_x191 -1 t_x192 = -45
 c132: -60 t_x358 -1 t_x174 +1 t_x177 -1 t_x180 = -72
 c133: -60 t_x359 -1 t_x175 +1 t_x178 = -30
 c134: -60 t_x360 -1 t_x174 +1 t_x175 +1 t_x179 -1 t_x180 = -73
 c135: -60 t_x361 +1 t_x180 +1 t_x181 -1 t_x186 = -3
 c136: -60 t_x362 +1 t_x180 +1 t_x182 +1 t_x191 -1 t_x192 = +26
 c137: -60 t_x363 +1 t_x180 +1 t_x183 = +56
 c59: -60 t_x285 -1 t_x77 +1 t_x85 = -59
 c139: -60 t_x365 +1 t_x185 -1 t_x186 -1 t_x191 +1 t_x192 = -30
 c140: -60 t_x366 -1 t_x174 -1 t_x186 +1 t_x187 -1 t_x169 = -133
 c141: -60 t_x367 +1 t_x186 +1 t_x188 -1 t_x193 = +0
 c142: -60 t_x368 +1 t_x189 +1 t_x191 -1 t_x192 = +29
 c143: -60 t_x369 -1 t_x174 +1 t_x175 +1 t_x190 +1 t_x191 -1 t_x192 = -46
 c144: -60 t_x370 -1 t_x175 +1 t_x195 -1 t_x169 = -59
 c145: -60 t_x371 +1 t_x196 +1 t_x197 -1 t_x15 -1 t_x22 -1 t_x34 = -82
 c146: -60 t_x372 -1 t_x197 +1 t_x198 +1 t_x34 -1 t_x35 = -90
 c147: -60 t_x373 -1 t_x197 +1 t_x199 +1 t_x159 -1 t_x160 = -110
 c148: -60 t_x374 +1 t_x200 +1 t_x202 -1 t_x205 = -3
 c149: -60 t_x375 +1 t_x201 -1 t_x202 +1 t_x32 -1 t_x33 = -68
 c150: -60 t_x376 +1 t_x192 -1 t_x193 -1 t_x202 +1 t_x203 +1 t_x32 -1 t_x34 = -134
 c151: -60 t_x377 +1 t_x204 -1 t_x205 +1 t_x32 -1 t_x33 = -68
 c152: -60 t_x378 +1 t_x206 -1 t_x54 -1 t_x56 = -59
 c153: -60 t_x379 +1 t_x207 +1 t_x35 -1 t_x40 = +27
 c154: -60 t_x380 +1 t_x208 -1 t_x34 +1 t_x35 = -33
 c43: -60 t_x269 +1 t_x202 +1 t_x66 -1 t_x67 = -6
 c156: -60 t_x382 +1 t_x210 -1 t_x23 -1 t_x33 = -58
 c157: -60 t_x383 +1 t_x211 -1 t_x33 +1 t_x37 = -34
 c158: -60 t_x384 +1 t_x213 +1 t_x23 -1 t_x28 = +0
 c159: -60 t_x385 +1 t_x214 -1 t_x29 -1 t_x37 = -84
 c160: -60 t_x386 +1 t_x215 -1 t_x23 -1 t_x37 = -87
 c161: -60 t_x387 +1 t_x216 -1 t_x16 +1 t_x19 = -3
 c162: -60 t_x388 +1 t_x212 +1 t_x217 +1 t_x19 +1 t_x22 +1 t_x32 = +59
 c163: -60 t_x389 +1 t_x218 -1 t_x19 -1 t_x22 +1 t_x29 = -5
 c164: -60 t_x390 +1 t_x212 +1 t_x219 +1 t_x16 +1 t_x22 +1 t_x32 = +29
 c165: -60 t_x391 +1 t_x212 +1 t_x220 +1 t_x16 +1 t_x22 +1 t_x32 = +59
 c166: -60 t_x392 +1 t_x192 -1 t_x194 +1 t_x221 -1 t_x14 -1 t_x22 -1 t_x34 = -168
 c85: -60 t_x311 +1 t_x109 +1 t_x114 = +24
 c62: -60 t_x288 +1 t_x192 -1 t_x193 -1 t_x205 +1 t_x32 -1 t_x34 +1 t_x77 +1 t_x88 = -138
 c63: -60 t_x289 +1 t_x192 -1 t_x194 -1 t_x205 +1 t_x32 -1 t_x34 +1 t_x77 +1 t_x89 = -136
 c127: -60 t_x353 +1 t_x174 +1 t_x192 -1 t_x205 +1 t_x32 -1 t_x34 +1 t_x170 = -97
 c155: -60 t_x381 +1 t_x209 -1 t_x34 +1 t_x35 = -3
 c138: -60 t_x364 +1 t_x180 +1 t_x184 -1 t_x192 +1 t_x34 -1 t_x35 = -33
Bounds
 0 <= t_x303 <= 1
 0 <= t_x304 <= 1
 0 <= t_x228 <= 0
 0 <= t_x394 <= 1
 0 <= t_x230 <= 1
 0 <= t_x231 <= 1
 0 <= t_x346 <= 1
 0 <= t_x340 <= 1
 0 <= t_x234 <= 0
 0 <= t_x307 <= 1
 0 <= t_x236 <= 1
 0 <= t_x237 <= 1
 0 <= t_x238 <= 1
 0 <= t_x239 <= 1
 0 <= t_x240 <= 1
 0 <= t_x241 <= 1
 0 <= t_x242 <= 1
 0 <= t_x243 <= 1
 0 <= t_x244 <= 1
 0 <= t_x245 <= 1
 0 <= t_x246 <= 1
 0 <= t_x247 <= 1
 0 <= t_x248 <= 0
 0 <= t_x249 <= 1
 0 <= t_x250 <= 1
 0 <= t_x308 <= 1
 0 <= t_x389 <= 1
 0 <= t_x253 <= 0
 0 <= t_x254 <= 0
 0 <= t_x255 <= 1
 0 <= t_x354 <= 1
 0 <= t_x387 <= 1
 0 <= t_x333 <= 1
 0 <= t_x385 <= 1
 0 <= t_x260 <= 1
 0 <= t_x261 <= 0
 0 <= t_x262 <= 1
 0 <= t_x263 <= 1
 0 <= t_x264 <= 0
 0 <= t_x265 <= 1
 0 <= t_x266 <= 1
 0 <= t_x267 <= 1
 0 <= t_x268 <= 1
 0 <= t_x269 <= 1
 0 <= t_x270 <= 0
 0 <= t_x271 <= 1
 0 <= t_x272 <= 1
 0 <= t_x384 <= 0
 0 <= t_x311 <= 1
 0 <= t_x382 <= 1
 0 <= t_x381 <= 1
 0 <= t_x312 <= 0
 0 <= t_x379 <= 0
 0 <= t_x378 <= 1
 0 <= t_x352 <= 1
 0 <= t_x314 <= 1
 0 <= t_x327 <= 1
 0 <= t_x374 <= 1
 0 <= t_x316 <= 1
 0 <= t_x285 <= 1
 0 <= t_x343 <= 1
 0 <= t_x334 <= 0
 0 <= t_x370 <= 1
 0 <= t_x319 <= 1
 0 <= t_x368 <= 0
 0 <= t_x367 <= 1
 0 <= t_x320 <= 1
 0 <= t_x365 <= 1
 0 <= t_x321 <= 1
 0 <= t_x363 <= 1
 0 <= t_x362 <= 1
 0 <= t_x361 <= 1
 0 <= t_x335 <= 1
 0 <= t_x359 <= 1
 0 <= t_x331 <= 1
 0 <= t_x357 <= 1
 0 <= t_x302 <= 1
 0 <= t_x396 <= 3
 0 <= t_x395 <= 2
 0 <= t_x393 <= 2
 0 <= t_x392 <= 3
 0 <= t_x391 <= 2
 0 <= t_x390 <= 2
 0 <= t_x388 <= 2
 0 <= t_x386 <= 2
 0 <= t_x383 <= 2
 0 <= t_x380 <= 2
 0 <= t_x377 <= 2
 0 <= t_x376 <= 4
 0 <= t_x375 <= 2
 0 <= t_x373 <= 3
 0 <= t_x372 <= 3
 0 <= t_x371 <= 2
 0 <= t_x369 <= 2
 0 <= t_x366 <= 3
 0 <= t_x364 <= 2
 0 <= t_x360 <= 3
 0 <= t_x358 <= 2
 0 <= t_x356 <= 2
 0 <= t_x355 <= 3
 0 <= t_x353 <= 3
 0 <= t_x351 <= 5
 0 <= t_x350 <= 3
 0 <= t_x349 <= 3
 0 <= t_x348 <= 2
 0 <= t_x347 <= 3
 0 <= t_x345 <= 2
 0 <= t_x344 <= 2
 0 <= t_x342 <= 3
 0 <= t_x341 <= 2
 0 <= t_x339 <= 3
 0 <= t_x338 <= 2
 0 <= t_x337 <= 3
 0 <= t_x336 <= 2
 0 <= t_x332 <= 3
 0 <= t_x330 <= 3
 0 <= t_x329 <= 3
 0 <= t_x328 <= 4
 0 <= t_x326 <= 4
 0 <= t_x325 <= 4
 0 <= t_x324 <= 3
 0 <= t_x323 <= 3
 0 <= t_x322 <= 2
 0 <= t_x318 <= 3
 0 <= t_x317 <= 3
 0 <= t_x315 <= 2
 0 <= t_x313 <= 3
 0 <= t_x310 <= 2
 0 <= t_x309 <= 4
 0 <= t_x306 <= 3
 0 <= t_x305 <= 3
 0 <= t_x301 <= 3
 0 <= t_x300 <= 2
 0 <= t_x299 <= 2
 0 <= t_x298 <= 2
 0 <= t_x297 <= 3
 0 <= t_x296 <= 3
 0 <= t_x295 <= 4
 0 <= t_x294 <= 3
 0 <= t_x293 <= 3
 0 <= t_x292 <= 3
 0 <= t_x291 <= 3
 0 <= t_x290 <= 3
 0 <= t_x289 <= 4
 0 <= t_x288 <= 5
 0 <= t_x287 <= 4
 0 <= t_x286 <= 2
 0 <= t_x284 <= 3
 0 <= t_x283 <= 3
 0 <= t_x282 <= 3
 0 <= t_x281 <= 4
 0 <= t_x280 <= 5
 0 <= t_x279 <= 4
 0 <= t_x278 <= 2
 0 <= t_x277 <= 2
 0 <= t_x276 <= 4
 0 <= t_x275 <= 2
 0 <= t_x274 <= 2
 0 <= t_x273 <= 4
 0 <= t_x259 <= 3
 0 <= t_x258 <= 2
 0 <= t_x257 <= 4
 0 <= t_x256 <= 3
 0 <= t_x252 <= 4
 0 <= t_x251 <= 3
 0 <= t_x235 <= 2
 0 <= t_x233 <= 2
 0 <= t_x232 <= 2
 0 <= t_x229 <= 2
 0 <= t_x227 <= 4
 0 <= t_x397 <= 2
 0 <= t_x172 <= 4
 0 <= t_x173 <= 59
 0 <= t_x174 <= 59
 0 <= t_x175 <= 58
 0 <= t_x176 <= 59
 0 <= t_x177 <= 59
 0 <= t_x178 <= 58
 0 <= t_x179 <= 59
 0 <= t_x180 <= 59
 0 <= t_x181 <= 57
 0 <= t_x182 <= 58
 0 <= t_x183 <= 58
 0 <= t_x184 <= 4
 0 <= t_x185 <= 57
 0 <= t_x186 <= 57
 0 <= t_x187 <= 59
 0 <= t_x188 <= 4
 0 <= t_x189 <= 58
 0 <= t_x190 <= 59
 0 <= t_x191 <= 4
 0 <= t_x192 <= 4
 0 <= t_x193 <= 59
 0 <= t_x194 <= 59
 0 <= t_x195 <= 58
 0 <= t_x196 <= 4
 0 <= t_x197 <= 59
 0 <= t_x198 <= 59
 0 <= t_x199 <= 58
 0 <= t_x200 <= 54
 0 <= t_x201 <= 52
 0 <= t_x202 <= 51
 0 <= t_x203 <= 59
 0 <= t_x204 <= 52
 0 <= t_x205 <= 51
 0 <= t_x206 <= 59
 0 <= t_x207 <= 6
 0 <= t_x208 <= 54
 0 <= t_x209 <= 54
 0 <= t_x210 <= 53
 0 <= t_x211 <= 53
 0 <= t_x212 <= 4
 0 <= t_x213 <= 4
 0 <= t_x214 <= 4
 0 <= t_x215 <= 54
 0 <= t_x216 <= 59
 0 <= t_x217 <= 59
 0 <= t_x218 <= 52
 0 <= t_x219 <= 54
 0 <= t_x220 <= 54
 0 <= t_x221 <= 58
 0 <= t_x222 <= 59
 0 <= t_x223 <= 58
 0 <= t_x224 <= 52
 0 <= t_x225 <= 58
 0 <= t_x226 <= 4
 0 <= t_x1 <= 4
 0 <= t_x2 <= 54
 0 <= t_x3 <= 54
 0 <= t_x4 <= 59
 0 <= t_x5 <= 4
 0 <= t_x6 <= 54
 0 <= t_x7 <= 59
 0 <= t_x8 <= 4
 0 <= t_x9 <= 48
 0 <= t_x10 <= 58
 0 <= t_x11 <= 58
 0 <= t_x12 <= 4
 0 <= t_x13 <= 52
 0 <= t_x14 <= 59
 0 <= t_x15 <= 59
 0 <= t_x16 <= 59
 0 <= t_x17 <= 59
 0 <= t_x18 <= 59
 0 <= t_x19 <= 54
 0 <= t_x20 <= 54
 0 <= t_x21 <= 52
 0 <= t_x22 <= 4
 0 <= t_x23 <= 54
 0 <= t_x24 <= 54
 0 <= t_x25 <= 59
 0 <= t_x26 <= 54
 0 <= t_x27 <= 59
 0 <= t_x28 <= 59
 0 <= t_x29 <= 59
 0 <= t_x30 <= 59
 0 <= t_x31 <= 59
 0 <= t_x32 <= 59
 0 <= t_x33 <= 54
 0 <= t_x34 <= 51
 0 <= t_x35 <= 51
 0 <= t_x36 <= 51
 0 <= t_x37 <= 54
 0 <= t_x38 <= 54
 0 <= t_x39 <= 59
 0 <= t_x40 <= 6
 0 <= t_x41 <= 54
 0 <= t_x42 <= 54
 0 <= t_x43 <= 54
 0 <= t_x44 <= 54
 0 <= t_x45 <= 57
 0 <= t_x46 <= 57
 0 <= t_x47 <= 6
 0 <= t_x48 <= 54
 0 <= t_x49 <= 54
 0 <= t_x50 <= 59
 0 <= t_x51 <= 59
 0 <= t_x52 <= 59
 0 <= t_x53 <= 59
 0 <= t_x54 <= 59
 0 <= t_x55 <= 59
 0 <= t_x56 <= 58
 0 <= t_x57 <= 6
 0 <= t_x58 <= 58
 0 <= t_x59 <= 6
 0 <= t_x60 <= 54
 0 <= t_x61 <= 54
 0 <= t_x62 <= 54
 0 <= t_x63 <= 54
 0 <= t_x64 <= 59
 0 <= t_x65 <= 59
 0 <= t_x66 <= 59
 0 <= t_x67 <= 6
 0 <= t_x68 <= 6
 0 <= t_x69 <= 54
 0 <= t_x70 <= 54
 0 <= t_x71 <= 4
 0 <= t_x72 <= 59
 0 <= t_x73 <= 52
 0 <= t_x74 <= 51
 0 <= t_x75 <= 59
 0 <= t_x76 <= 54
 0 <= t_x77 <= 59
 0 <= t_x78 <= 59
 0 <= t_x79 <= 59
 0 <= t_x80 <= 59
 0 <= t_x81 <= 59
 0 <= t_x82 <= 54
 0 <= t_x83 <= 54
 0 <= t_x84 <= 54
 0 <= t_x85 <= 54
 0 <= t_x86 <= 54
 0 <= t_x87 <= 52
 0 <= t_x88 <= 59
 0 <= t_x89 <= 4
 0 <= t_x90 <= 53
 0 <= t_x91 <= 59
 0 <= t_x92 <= 59
 0 <= t_x93 <= 59
 0 <= t_x94 <= 59
 0 <= t_x95 <= 50
 0 <= t_x96 <= 52
 0 <= t_x97 <= 54
 0 <= t_x98 <= 53
 0 <= t_x99 <= 52
 0 <= t_x100 <= 52
 0 <= t_x101 <= 53
 0 <= t_x102 <= 52
 0 <= t_x103 <= 59
 0 <= t_x104 <= 54
 0 <= t_x105 <= 54
 0 <= t_x106 <= 54
 0 <= t_x107 <= 4
 0 <= t_x108 <= 5
 0 <= t_x109 <= 54
 0 <= t_x110 <= 59
 0 <= t_x111 <= 59
 0 <= t_x112 <= 59
 0 <= t_x113 <= 59
 0 <= t_x114 <= 54
 0 <= t_x115 <= 4
 0 <= t_x116 <= 54
 0 <= t_x117 <= 54
 0 <= t_x118 <= 59
 0 <= t_x119 <= 53
 0 <= t_x120 <= 53
 0 <= t_x121 <= 53
 0 <= t_x122 <= 56
 0 <= t_x123 <= 4
 0 <= t_x124 <= 59
 0 <= t_x125 <= 54
 0 <= t_x126 <= 39
 0 <= t_x127 <= 59
 0 <= t_x128 <= 54
 0 <= t_x129 <= 4
 0 <= t_x130 <= 4
 0 <= t_x131 <= 59
 0 <= t_x132 <= 5
 0 <= t_x133 <= 51
 0 <= t_x134 <= 4
 0 <= t_x135 <= 54
 0 <= t_x136 <= 59
 0 <= t_x137 <= 59
 0 <= t_x138 <= 59
 0 <= t_x139 <= 54
 0 <= t_x140 <= 54
 0 <= t_x141 <= 4
 0 <= t_x142 <= 4
 0 <= t_x143 <= 56
 0 <= t_x144 <= 59
 0 <= t_x145 <= 4
 0 <= t_x146 <= 4
 0 <= t_x147 <= 59
 0 <= t_x148 <= 54
 0 <= t_x149 <= 54
 0 <= t_x150 <= 54
 0 <= t_x151 <= 54
 0 <= t_x152 <= 54
 0 <= t_x153 <= 54
 0 <= t_x154 <= 4
 0 <= t_x155 <= 59
 0 <= t_x156 <= 58
 0 <= t_x157 <= 4
 0 <= t_x158 <= 59
 0 <= t_x159 <= 59
 0 <= t_x160 <= 58
 0 <= t_x161 <= 58
 0 <= t_x162 <= 59
 0 <= t_x163 <= 59
 0 <= t_x164 <= 52
 0 <= t_x165 <= 4
 0 <= t_x166 <= 58
 0 <= t_x167 <= 4
 0 <= t_x168 <= 49
 0 <= t_x169 <= 58
 0 <= t_x170 <= 4
 0 <= t_x171 <= 58
Binaries
 t_x303 t_x304 t_x228 t_x394 t_x230 t_x231 t_x346 t_x340 t_x234 t_x307 t_x236 t_x237 t_x238 t_x239 t_x240
 t_x241 t_x242 t_x243 t_x244 t_x245 t_x246 t_x247 t_x248 t_x249 t_x250 t_x308 t_x389 t_x253 t_x254 t_x255
 t_x354 t_x387 t_x333 t_x385 t_x260 t_x261 t_x262 t_x263 t_x264 t_x265 t_x266 t_x267 t_x268 t_x269 t_x270
 t_x271 t_x272 t_x384 t_x311 t_x382 t_x381 t_x312 t_x379 t_x378 t_x352 t_x314 t_x327 t_x374 t_x316 t_x285
 t_x343 t_x334 t_x370 t_x319 t_x368 t_x367 t_x320 t_x365 t_x321 t_x363 t_x362 t_x361 t_x335 t_x359 t_x331
 t_x357 t_x302
Generals
 t_x396 t_x395 t_x393 t_x392 t_x391 t_x390 t_x388 t_x386 t_x383 t_x380 t_x377 t_x376 t_x375 t_x373 t_x372
 t_x371 t_x369 t_x366 t_x364 t_x360 t_x358 t_x356 t_x355 t_x353 t_x351 t_x350 t_x349 t_x348 t_x347 t_x345
 t_x344 t_x342 t_x341 t_x339 t_x338 t_x337 t_x336 t_x332 t_x330 t_x329 t_x328 t_x326 t_x325 t_x324 t_x323
 t_x322 t_x318 t_x317 t_x315 t_x313 t_x310 t_x309 t_x306 t_x305 t_x301 t_x300 t_x299 t_x298 t_x297 t_x296
 t_x295 t_x294 t_x293 t_x292 t_x291 t_x290 t_x289 t_x288 t_x287 t_x286 t_x284 t_x283 t_x282 t_x281 t_x280
 t_x279 t_x278 t_x277 t_x276 t_x275 t_x274 t_x273 t_x259 t_x258 t_x257 t_x256 t_x252 t_x251 t_x235 t_x233
 t_x232 t_x229 t_x227 t_x397
End
